p cnf 47 112
c uncontrollable inputs:
a 1 0
c state variables:
a 3 4 5 0
c next state variables:
a 6 7 8 0
c controllable inputs
d 2 1 3 4 5 0
c winning region (state)
d 9 3 4 5 0
c winning region (next state)
d 10 6 7 8 0
c tseitin variables
e 11 12 13 14 15 16 17 18 19 20 21 22 23 24 25 26 27 28 29 30 31 32 33 34 35 36 37 38 39 40 41 42 43 44 45 46 47 0
c clauses:
-11 -8 0
-11 5 0
11 8 -5 0
-12 8 0
-12 -5 0
12 -8 5 0
-13 -11 0
-13 -12 0
13 11 12 0
-14 -6 0
-14 3 0
14 6 -3 0
-15 6 0
-15 -3 0
15 -6 3 0
-16 -14 0
-16 -15 0
16 14 15 0
-17 -7 0
-17 4 0
17 7 -4 0
-18 7 0
-18 -4 0
18 -7 4 0
-19 -17 0
-19 -18 0
19 17 18 0
-20 16 0
-20 19 0
20 -16 -19 0
-21 13 0
-21 20 0
21 -13 -20 0
-22 10 0
-22 -9 0
22 -10 9 0
-23 -10 0
-23 9 0
23 10 -9 0
-24 -22 0
-24 -23 0
24 22 23 0
-25 21 0
-25 -24 0
25 -21 24 0
-26 5 0
-26 3 0
26 -5 -3 0
-27 -4 0
-27 26 0
27 4 -26 0
-28 4 0
-28 3 0
28 -4 -3 0
-29 -5 0
-29 28 0
29 5 -28 0
-30 -27 0
-30 -29 0
30 27 29 0
-31 -8 0
-31 -30 0
31 8 30 0
-32 8 0
-32 30 0
32 -8 -30 0
-33 -31 0
-33 -32 0
33 31 32 0
-34 -7 0
-34 -28 0
34 7 28 0
-35 7 0
-35 28 0
35 -7 -28 0
-36 -34 0
-36 -35 0
36 34 35 0
-37 6 0
-37 36 0
37 -6 -36 0
-38 33 0
-38 37 0
38 -33 -37 0
-39 38 0
-39 23 0
39 -38 -23 0
-40 4 0
-40 26 0
40 -4 -26 0
-41 9 0
-41 40 0
41 -9 -40 0
-42 -4 0
-42 -3 0
42 4 3 0
-43 -5 0
-43 42 0
43 5 -42 0
-44 -9 0
-44 43 0
44 9 -43 0
-45 -41 0
-45 -44 0
45 41 44 0
-46 -39 0
-46 45 0
46 39 -45 0
-47 -25 0
-47 46 0
47 25 -46 0
47 0
